p tw 50 56
1 2
2 13
3 35
4 5
5 6
6 7
6 18
7 8
8 9
8 12
9 10
10 11
11 12
12 14
13 24
14 15
15 16
16 17
17 41
18 19
19 20
20 21
20 41
21 22
22 23
23 25
23 28
24 35
25 26
26 27
27 28
28 29
29 30
30 31
30 33
31 32
32 33
33 34
34 36
35 46
36 37
37 38
38 39
39 40
40 41
41 42
42 43
43 44
44 45
46 47
47 48
47 4
48 49
49 50
49 4
50 3
